p cnf 666 1443
e 24 26 51 54 79 83 107 112 135 141 163 170 191 199 219 228 247 257 275 286 303 315 331 344 359 373 387 402 415 431 443 460 471 489 499 518 527 547 555 576 583 605 611 634 639 663 0
a 27 53 81 109 137 165 193 221 249 277 305 333 361 389 417 445 473 501 529 557 585 613 641 0
e 1 2 3 4 5 6 7 8 9 10 11 12 13 14 15 16 17 18 19 20 21 22 23 25 28 29 30 31 32 33 34 35 36 37 38 39 40 41 42 43 44 45 46 47 48 49 50 52 55 56 57 58 59 60 61 62 63 64 65 66 67 68 69 70 71 72 73 74 75 76 77 78 80 82 84 85 86 87 88 89 90 91 92 93 94 95 96 97 98 99 100 101 102 103 104 105 106 108 110 111 113 114 115 116 117 118 119 120 121 122 123 124 125 126 127 128 129 130 131 132 133 134 136 138 139 140 142 143 144 145 146 147 148 149 150 151 152 153 154 155 156 157 158 159 160 161 162 164 166 167 168 169 171 172 173 174 175 176 177 178 179 180 181 182 183 184 185 186 187 188 189 190 192 194 195 196 197 198 200 201 202 203 204 205 206 207 208 209 210 211 212 213 214 215 216 217 218 220 222 223 224 225 226 227 229 230 231 232 233 234 235 236 237 238 239 240 241 242 243 244 245 246 248 250 251 252 253 254 255 256 258 259 260 261 262 263 264 265 266 267 268 269 270 271 272 273 274 276 278 279 280 281 282 283 284 285 287 288 289 290 291 292 293 294 295 296 297 298 299 300 301 302 304 306 307 308 309 310 311 312 313 314 316 317 318 319 320 321 322 323 324 325 326 327 328 329 330 332 334 335 336 337 338 339 340 341 342 343 345 346 347 348 349 350 351 352 353 354 355 356 357 358 360 362 363 364 365 366 367 368 369 370 371 372 374 375 376 377 378 379 380 381 382 383 384 385 386 388 390 391 392 393 394 395 396 397 398 399 400 401 403 404 405 406 407 408 409 410 411 412 413 414 416 418 419 420 421 422 423 424 425 426 427 428 429 430 432 433 434 435 436 437 438 439 440 441 442 444 446 447 448 449 450 451 452 453 454 455 456 457 458 459 461 462 463 464 465 466 467 468 469 470 472 474 475 476 477 478 479 480 481 482 483 484 485 486 487 488 490 491 492 493 494 495 496 497 498 500 502 503 504 505 506 507 508 509 510 511 512 513 514 515 516 517 519 520 521 522 523 524 525 526 528 530 531 532 533 534 535 536 537 538 539 540 541 542 543 544 545 546 548 549 550 551 552 553 554 556 558 559 560 561 562 563 564 565 566 567 568 569 570 571 572 573 574 575 577 578 579 580 581 582 584 586 587 588 589 590 591 592 593 594 595 596 597 598 599 600 601 602 603 604 606 607 608 609 610 612 614 615 616 617 618 619 620 621 622 623 624 625 626 627 628 629 630 631 632 633 635 636 637 638 640 642 643 644 645 646 647 648 649 650 651 652 653 654 655 656 657 658 659 660 661 662 664 665 666 0
27 -25 0
-27 -28 0
-52 55 0
-52 56 0
-55 -57 0
-57 56 0
-80 84 0
-80 85 0
-84 -86 0
-86 85 0
-108 113 0
-108 114 0
-113 -115 0
-115 114 0
142 -136 0
143 -136 0
-142 -144 0
-144 143 0
171 -164 0
172 -164 0
-171 -173 0
-173 172 0
-192 200 0
201 -192 0
-202 -200 0
-202 201 0
-220 229 0
-220 230 0
-229 -231 0
-231 230 0
258 -248 0
259 -248 0
-258 -260 0
-260 259 0
-276 287 0
-276 288 0
-287 -289 0
-289 288 0
-304 316 0
-304 317 0
-316 -318 0
-318 317 0
345 -332 0
346 -332 0
-347 -345 0
-347 346 0
-360 374 0
-360 375 0
-374 -376 0
-376 375 0
-388 403 0
-388 404 0
-403 -405 0
-405 404 0
432 -416 0
433 -416 0
-432 -434 0
-434 433 0
461 -444 0
462 -444 0
-461 -463 0
-463 462 0
490 -472 0
491 -472 0
-490 -492 0
-492 491 0
-500 519 0
-500 520 0
-519 -521 0
-521 520 0
-528 548 0
-528 549 0
-548 -550 0
-550 549 0
-556 577 0
-556 578 0
-577 -579 0
-579 578 0
606 -584 0
607 -584 0
-606 -608 0
-608 607 0
635 -612 0
636 -612 0
-635 -637 0
-637 636 0
-640 664 0
665 -640 0
-666 -664 0
-666 665 0
-25 56 0
-28 56 0
85 -52 0
85 -57 0
-80 114 0
114 -86 0
-108 143 0
143 -115 0
172 -136 0
172 -144 0
201 -164 0
201 -173 0
-192 230 0
-202 230 0
-220 259 0
259 -231 0
288 -248 0
288 -260 0
317 -276 0
317 -289 0
-304 346 0
346 -318 0
-332 375 0
-347 375 0
-360 404 0
404 -376 0
-388 433 0
433 -405 0
462 -416 0
462 -434 0
491 -444 0
491 -463 0
-472 520 0
-492 520 0
549 -500 0
549 -521 0
-528 578 0
578 -550 0
-556 607 0
607 -579 0
636 -584 0
636 -608 0
665 -612 0
665 -637 0
28 25 0
27 -29 0
29 -30 0
30 -31 0
-32 31 0
32 -33 0
33 -34 0
34 -35 0
-36 35 0
36 -37 0
37 -38 0
38 -39 0
-40 39 0
40 -41 0
41 -42 0
42 -43 0
-44 43 0
44 -45 0
45 -46 0
46 -47 0
-48 47 0
48 -49 0
49 -50 0
-1 50 0
-27 29 0
-29 30 0
-30 31 0
32 -31 0
-32 33 0
-33 34 0
-34 35 0
36 -35 0
-36 37 0
-37 38 0
-38 39 0
40 -39 0
-40 41 0
-41 42 0
-42 43 0
44 -43 0
-44 45 0
-45 46 0
-46 47 0
48 -47 0
-48 49 0
-49 50 0
1 -50 0
28 25 -56 0
57 -56 52 0
53 -55 0
-58 55 0
58 -59 0
59 -60 0
60 -61 0
-62 61 0
62 -63 0
63 -64 0
64 -65 0
-66 65 0
66 -67 0
67 -68 0
68 -69 0
-70 69 0
70 -71 0
71 -72 0
72 -73 0
-74 73 0
74 -75 0
75 -76 0
76 -77 0
-78 77 0
-2 78 0
-53 55 0
58 -55 0
-58 59 0
-59 60 0
-60 61 0
62 -61 0
-62 63 0
-63 64 0
-64 65 0
66 -65 0
-66 67 0
-67 68 0
-68 69 0
70 -69 0
-70 71 0
-71 72 0
-72 73 0
74 -73 0
-74 75 0
-75 76 0
-76 77 0
78 -77 0
-78 2 0
57 -85 52 0
80 -85 86 0
81 -82 0
82 -84 0
84 -87 0
-88 87 0
88 -89 0
89 -90 0
90 -91 0
-92 91 0
92 -93 0
93 -94 0
94 -95 0
-96 95 0
96 -97 0
97 -98 0
98 -99 0
-100 99 0
100 -101 0
101 -102 0
102 -103 0
-104 103 0
104 -105 0
105 -106 0
-3 106 0
-81 82 0
-82 84 0
-84 87 0
88 -87 0
-88 89 0
-89 90 0
-90 91 0
92 -91 0
-92 93 0
-93 94 0
-94 95 0
96 -95 0
-96 97 0
-97 98 0
-98 99 0
100 -99 0
-100 101 0
-101 102 0
-102 103 0
104 -103 0
-104 105 0
-105 106 0
3 -106 0
-114 80 86 0
108 -114 115 0
109 -110 0
110 -111 0
111 -113 0
113 -116 0
116 -117 0
117 -118 0
118 -119 0
119 -120 0
120 -121 0
121 -122 0
122 -123 0
123 -124 0
124 -125 0
125 -126 0
126 -127 0
127 -128 0
128 -129 0
129 -130 0
130 -131 0
131 -132 0
132 -133 0
133 -134 0
-4 134 0
110 -109 0
111 -110 0
-111 113 0
-113 116 0
117 -116 0
118 -117 0
-118 119 0
-119 120 0
121 -120 0
122 -121 0
-122 123 0
-123 124 0
125 -124 0
126 -125 0
-126 127 0
-127 128 0
129 -128 0
130 -129 0
-130 131 0
-131 132 0
133 -132 0
134 -133 0
-134 4 0
-143 108 115 0
136 -143 144 0
137 -138 0
138 -139 0
-140 139 0
140 -142 0
142 -145 0
145 -146 0
-147 146 0
147 -148 0
148 -149 0
149 -150 0
-151 150 0
151 -152 0
152 -153 0
153 -154 0
-155 154 0
155 -156 0
156 -157 0
157 -158 0
-159 158 0
159 -160 0
160 -161 0
161 -162 0
-5 162 0
-137 138 0
-138 139 0
140 -139 0
-140 142 0
-142 145 0
-145 146 0
147 -146 0
-147 148 0
-148 149 0
-149 150 0
151 -150 0
-151 152 0
-152 153 0
-153 154 0
155 -154 0
-155 156 0
-156 157 0
-157 158 0
159 -158 0
-159 160 0
-160 161 0
-161 162 0
5 -162 0
136 -172 144 0
-172 173 164 0
-166 165 0
166 -167 0
167 -168 0
168 -169 0
-171 169 0
171 -174 0
174 -175 0
175 -176 0
-177 176 0
177 -178 0
178 -179 0
179 -180 0
-181 180 0
181 -182 0
182 -183 0
183 -184 0
-185 184 0
185 -186 0
186 -187 0
187 -188 0
-189 188 0
189 -190 0
-6 190 0
166 -165 0
-166 167 0
-167 168 0
-168 169 0
171 -169 0
-171 174 0
-174 175 0
-175 176 0
177 -176 0
-177 178 0
-178 179 0
-179 180 0
181 -180 0
-181 182 0
-182 183 0
-183 184 0
185 -184 0
-185 186 0
-186 187 0
-187 188 0
189 -188 0
-189 190 0
-190 6 0
173 164 -201 0
202 192 -201 0
193 -194 0
194 -195 0
-196 195 0
196 -197 0
197 -198 0
198 -200 0
-203 200 0
203 -204 0
204 -205 0
205 -206 0
-207 206 0
207 -208 0
208 -209 0
209 -210 0
-211 210 0
211 -212 0
212 -213 0
213 -214 0
-215 214 0
215 -216 0
216 -217 0
217 -218 0
-7 218 0
-193 194 0
-194 195 0
196 -195 0
-196 197 0
-197 198 0
-198 200 0
203 -200 0
-203 204 0
-204 205 0
-205 206 0
207 -206 0
-207 208 0
-208 209 0
-209 210 0
211 -210 0
-211 212 0
-212 213 0
-213 214 0
215 -214 0
-215 216 0
-216 217 0
-217 218 0
7 -218 0
202 192 -230 0
220 -230 231 0
221 -222 0
222 -223 0
223 -224 0
224 -225 0
225 -226 0
226 -227 0
227 -229 0
229 -232 0
232 -233 0
233 -234 0
234 -235 0
235 -236 0
236 -237 0
237 -238 0
238 -239 0
239 -240 0
240 -241 0
241 -242 0
242 -243 0
243 -244 0
244 -245 0
245 -246 0
-8 246 0
-221 222 0
-222 223 0
-223 224 0
225 -224 0
226 -225 0
-226 227 0
-227 229 0
232 -229 0
233 -232 0
-233 234 0
-234 235 0
236 -235 0
237 -236 0
-237 238 0
-238 239 0
240 -239 0
241 -240 0
-241 242 0
-242 243 0
244 -243 0
245 -244 0
-245 246 0
-246 8 0
220 -259 231 0
-259 260 248 0
249 -250 0
-251 250 0
251 -252 0
252 -253 0
253 -254 0
-255 254 0
255 -256 0
256 -258 0
258 -261 0
-262 261 0
262 -263 0
263 -264 0
264 -265 0
-266 265 0
266 -267 0
267 -268 0
268 -269 0
-270 269 0
270 -271 0
271 -272 0
272 -273 0
-274 273 0
274 -9 0
-249 250 0
251 -250 0
-251 252 0
-252 253 0
-253 254 0
255 -254 0
-255 256 0
-256 258 0
-258 261 0
262 -261 0
-262 263 0
-263 264 0
-264 265 0
266 -265 0
-266 267 0
-267 268 0
-268 269 0
270 -269 0
-270 271 0
-271 272 0
-272 273 0
274 -273 0
-274 9 0
-288 260 248 0
-288 276 289 0
277 -278 0
278 -279 0
279 -280 0
-281 280 0
281 -282 0
282 -283 0
283 -284 0
-285 284 0
285 -287 0
287 -290 0
290 -291 0
-292 291 0
292 -293 0
293 -294 0
294 -295 0
-296 295 0
296 -297 0
297 -298 0
298 -299 0
-300 299 0
300 -301 0
301 -302 0
-10 302 0
-277 278 0
-278 279 0
-279 280 0
281 -280 0
-281 282 0
-282 283 0
-283 284 0
285 -284 0
-285 287 0
-287 290 0
-290 291 0
292 -291 0
-292 293 0
-293 294 0
-294 295 0
296 -295 0
-296 297 0
-297 298 0
-298 299 0
300 -299 0
-300 301 0
-301 302 0
-302 10 0
-317 276 289 0
304 -317 318 0
305 -306 0
-307 306 0
307 -308 0
308 -309 0
309 -310 0
-311 310 0
311 -312 0
312 -313 0
313 -314 0
-316 314 0
316 -319 0
319 -320 0
320 -321 0
-322 321 0
322 -323 0
323 -324 0
324 -325 0
-326 325 0
326 -327 0
327 -328 0
328 -329 0
-330 329 0
330 -11 0
-305 306 0
307 -306 0
-307 308 0
-308 309 0
-309 310 0
311 -310 0
-311 312 0
-312 313 0
-313 314 0
316 -314 0
-316 319 0
-319 320 0
-320 321 0
322 -321 0
-322 323 0
-323 324 0
-324 325 0
326 -325 0
-326 327 0
-327 328 0
-328 329 0
330 -329 0
-330 11 0
-346 304 318 0
-346 347 332 0
333 -334 0
334 -335 0
335 -336 0
336 -337 0
337 -338 0
338 -339 0
339 -340 0
340 -341 0
341 -342 0
342 -343 0
343 -345 0
345 -348 0
348 -349 0
349 -350 0
350 -351 0
351 -352 0
352 -353 0
353 -354 0
354 -355 0
355 -356 0
356 -357 0
357 -358 0
-12 358 0
-333 334 0
-334 335 0
336 -335 0
337 -336 0
-337 338 0
-338 339 0
340 -339 0
341 -340 0
-341 342 0
-342 343 0
345 -343 0
348 -345 0
-348 349 0
-349 350 0
351 -350 0
352 -351 0
-352 353 0
-353 354 0
355 -354 0
356 -355 0
-356 357 0
-357 358 0
-358 12 0
347 -375 332 0
360 -375 376 0
-362 361 0
362 -363 0
363 -364 0
364 -365 0
-366 365 0
366 -367 0
367 -368 0
368 -369 0
-370 369 0
370 -371 0
371 -372 0
372 -374 0
-377 374 0
377 -378 0
378 -379 0
379 -380 0
-381 380 0
381 -382 0
382 -383 0
383 -384 0
-385 384 0
385 -386 0
386 -13 0
362 -361 0
-362 363 0
-363 364 0
-364 365 0
366 -365 0
-366 367 0
-367 368 0
-368 369 0
370 -369 0
-370 371 0
-371 372 0
-372 374 0
377 -374 0
-377 378 0
-378 379 0
-379 380 0
381 -380 0
-381 382 0
-382 383 0
-383 384 0
385 -384 0
-385 386 0
-386 13 0
360 -404 376 0
388 -404 405 0
389 -390 0
390 -391 0
-392 391 0
392 -393 0
393 -394 0
394 -395 0
-396 395 0
396 -397 0
397 -398 0
398 -399 0
-400 399 0
400 -401 0
401 -403 0
403 -406 0
-407 406 0
407 -408 0
408 -409 0
409 -410 0
-411 410 0
411 -412 0
412 -413 0
413 -414 0
-14 414 0
-389 390 0
-390 391 0
392 -391 0
-392 393 0
-393 394 0
-394 395 0
396 -395 0
-396 397 0
-397 398 0
-398 399 0
400 -399 0
-400 401 0
-401 403 0
-403 406 0
407 -406 0
-407 408 0
-408 409 0
-409 410 0
411 -410 0
-411 412 0
-412 413 0
-413 414 0
-414 14 0
388 -433 405 0
-433 434 416 0
417 -418 0
418 -419 0
419 -420 0
420 -421 0
-422 421 0
422 -423 0
423 -424 0
424 -425 0
-426 425 0
426 -427 0
427 -428 0
428 -429 0
-430 429 0
430 -432 0
432 -435 0
435 -436 0
-437 436 0
437 -438 0
438 -439 0
439 -440 0
-441 440 0
441 -442 0
442 -15 0
418 -417 0
-418 419 0
-419 420 0
-420 421 0
422 -421 0
-422 423 0
-423 424 0
-424 425 0
426 -425 0
-426 427 0
-427 428 0
-428 429 0
430 -429 0
-430 432 0
-432 435 0
-435 436 0
437 -436 0
-437 438 0
-438 439 0
-439 440 0
441 -440 0
-441 442 0
-442 15 0
-462 434 416 0
-462 463 444 0
445 -446 0
446 -447 0
447 -448 0
448 -449 0
449 -450 0
450 -451 0
451 -452 0
452 -453 0
453 -454 0
454 -455 0
455 -456 0
456 -457 0
457 -458 0
458 -459 0
459 -461 0
461 -464 0
464 -465 0
465 -466 0
466 -467 0
467 -468 0
468 -469 0
469 -470 0
470 -16 0
-445 446 0
447 -446 0
448 -447 0
-448 449 0
-449 450 0
451 -450 0
452 -451 0
-452 453 0
-453 454 0
455 -454 0
456 -455 0
-456 457 0
-457 458 0
459 -458 0
461 -459 0
-461 464 0
-464 465 0
466 -465 0
467 -466 0
-467 468 0
-468 469 0
470 -469 0
16 -470 0
-491 463 444 0
-491 492 472 0
473 -474 0
474 -475 0
475 -476 0
-477 476 0
477 -478 0
478 -479 0
479 -480 0
-481 480 0
481 -482 0
482 -483 0
483 -484 0
-485 484 0
485 -486 0
486 -487 0
487 -488 0
-490 488 0
490 -493 0
493 -494 0
494 -495 0
-496 495 0
496 -497 0
497 -498 0
-17 498 0
-473 474 0
-474 475 0
-475 476 0
477 -476 0
-477 478 0
-478 479 0
-479 480 0
481 -480 0
-481 482 0
-482 483 0
-483 484 0
485 -484 0
-485 486 0
-486 487 0
-487 488 0
490 -488 0
-490 493 0
-493 494 0
-494 495 0
496 -495 0
-496 497 0
-497 498 0
17 -498 0
492 472 -520 0
521 -520 500 0
501 -502 0
-503 502 0
503 -504 0
504 -505 0
505 -506 0
-507 506 0
507 -508 0
508 -509 0
509 -510 0
-511 510 0
511 -512 0
512 -513 0
513 -514 0
-515 514 0
515 -516 0
516 -517 0
517 -519 0
-522 519 0
522 -523 0
523 -524 0
524 -525 0
-526 525 0
-18 526 0
-501 502 0
503 -502 0
-503 504 0
-504 505 0
-505 506 0
507 -506 0
-507 508 0
-508 509 0
-509 510 0
511 -510 0
-511 512 0
-512 513 0
-513 514 0
515 -514 0
-515 516 0
-516 517 0
-517 519 0
522 -519 0
-522 523 0
-523 524 0
-524 525 0
526 -525 0
-526 18 0
521 -549 500 0
528 -549 550 0
529 -530 0
530 -531 0
531 -532 0
-533 532 0
533 -534 0
534 -535 0
535 -536 0
-537 536 0
537 -538 0
538 -539 0
539 -540 0
-541 540 0
541 -542 0
542 -543 0
543 -544 0
-545 544 0
545 -546 0
546 -548 0
548 -551 0
-552 551 0
552 -553 0
553 -554 0
-19 554 0
-529 530 0
-530 531 0
-531 532 0
533 -532 0
-533 534 0
-534 535 0
-535 536 0
537 -536 0
-537 538 0
-538 539 0
-539 540 0
541 -540 0
-541 542 0
-542 543 0
-543 544 0
545 -544 0
-545 546 0
-546 548 0
-548 551 0
552 -551 0
-552 553 0
-553 554 0
19 -554 0
-578 528 550 0
556 -578 579 0
557 -558 0
558 -559 0
559 -560 0
560 -561 0
561 -562 0
562 -563 0
563 -564 0
564 -565 0
565 -566 0
566 -567 0
567 -568 0
568 -569 0
569 -570 0
570 -571 0
571 -572 0
572 -573 0
573 -574 0
574 -575 0
575 -577 0
577 -580 0
580 -581 0
581 -582 0
-20 582 0
558 -557 0
559 -558 0
-559 560 0
-560 561 0
562 -561 0
563 -562 0
-563 564 0
-564 565 0
566 -565 0
567 -566 0
-567 568 0
-568 569 0
570 -569 0
571 -570 0
-571 572 0
-572 573 0
574 -573 0
575 -574 0
-575 577 0
-577 580 0
581 -580 0
582 -581 0
-582 20 0
-607 556 579 0
584 -607 608 0
585 -586 0
586 -587 0
-588 587 0
588 -589 0
589 -590 0
590 -591 0
-592 591 0
592 -593 0
593 -594 0
594 -595 0
-596 595 0
596 -597 0
597 -598 0
598 -599 0
-600 599 0
600 -601 0
601 -602 0
602 -603 0
-604 603 0
604 -606 0
606 -609 0
609 -610 0
-21 610 0
-585 586 0
-586 587 0
588 -587 0
-588 589 0
-589 590 0
-590 591 0
592 -591 0
-592 593 0
-593 594 0
-594 595 0
596 -595 0
-596 597 0
-597 598 0
-598 599 0
600 -599 0
-600 601 0
-601 602 0
-602 603 0
604 -603 0
-604 606 0
-606 609 0
-609 610 0
21 -610 0
584 -636 608 0
-636 637 612 0
-614 613 0
614 -615 0
615 -616 0
616 -617 0
-618 617 0
618 -619 0
619 -620 0
620 -621 0
-622 621 0
622 -623 0
623 -624 0
624 -625 0
-626 625 0
626 -627 0
627 -628 0
628 -629 0
-630 629 0
630 -631 0
631 -632 0
632 -633 0
-635 633 0
635 -638 0
-22 638 0
614 -613 0
-614 615 0
-615 616 0
-616 617 0
618 -617 0
-618 619 0
-619 620 0
-620 621 0
622 -621 0
-622 623 0
-623 624 0
-624 625 0
626 -625 0
-626 627 0
-627 628 0
-628 629 0
630 -629 0
-630 631 0
-631 632 0
-632 633 0
635 -633 0
-635 638 0
-638 22 0
637 612 -665 0
666 640 -665 0
641 -642 0
642 -643 0
-644 643 0
644 -645 0
645 -646 0
646 -647 0
-648 647 0
648 -649 0
649 -650 0
650 -651 0
-652 651 0
652 -653 0
653 -654 0
654 -655 0
-656 655 0
656 -657 0
657 -658 0
658 -659 0
-660 659 0
660 -661 0
661 -662 0
662 -664 0
-23 664 0
-641 642 0
-642 643 0
644 -643 0
-644 645 0
-645 646 0
-646 647 0
648 -647 0
-648 649 0
-649 650 0
-650 651 0
652 -651 0
-652 653 0
-653 654 0
-654 655 0
656 -655 0
-656 657 0
-657 658 0
-658 659 0
660 -659 0
-660 661 0
-661 662 0
-662 664 0
23 -664 0
666 640 0
-28 -25 0
-52 -57 0
-80 -86 0
-108 -115 0
-144 -136 0
-173 -164 0
-202 -192 0
-220 -231 0
-260 -248 0
-276 -289 0
-304 -318 0
-347 -332 0
-360 -376 0
-388 -405 0
-434 -416 0
-463 -444 0
-492 -472 0
-500 -521 0
-528 -550 0
-556 -579 0
-608 -584 0
-637 -612 0
-666 -640 0
-27 -24 25 0
-25 24 0
27 -25 0
-26 27 28 0
26 -28 0
-27 -28 0
-51 -55 -56 52 0
-52 51 0
-52 55 0
-52 56 0
57 -54 -56 55 0
54 -57 0
-55 -57 0
-57 56 0
-79 -84 80 -85 0
-80 79 0
-80 84 0
-80 85 0
-83 -85 84 86 0
83 -86 0
-84 -86 0
-86 85 0
-107 108 -113 -114 0
-108 107 0
-108 113 0
-108 114 0
-112 -114 113 115 0
112 -115 0
-113 -115 0
-115 114 0
136 -142 -143 -135 0
-136 135 0
142 -136 0
143 -136 0
-141 -143 142 144 0
141 -144 0
-142 -144 0
-144 143 0
-171 -172 -163 164 0
-164 163 0
171 -164 0
172 -164 0
-170 -172 171 173 0
170 -173 0
-171 -173 0
-173 172 0
-191 192 -200 -201 0
-192 191 0
-192 200 0
201 -192 0
202 -199 -201 200 0
-202 199 0
-202 -200 0
-202 201 0
220 -229 -230 -219 0
-220 219 0
-220 229 0
-220 230 0
-228 -230 229 231 0
228 -231 0
-229 -231 0
-231 230 0
-258 -259 -247 248 0
-248 247 0
258 -248 0
259 -248 0
-257 -259 258 260 0
257 -260 0
-258 -260 0
-260 259 0
-275 -287 -288 276 0
-276 275 0
-276 287 0
-276 288 0
-286 -288 287 289 0
286 -289 0
-287 -289 0
-289 288 0
-303 -316 304 -317 0
-304 303 0
-304 316 0
-304 317 0
-315 -317 316 318 0
315 -318 0
-316 -318 0
-318 317 0
-346 -331 332 -345 0
-332 331 0
345 -332 0
346 -332 0
-346 345 347 -344 0
-347 344 0
-347 -345 0
-347 346 0
-359 360 -374 -375 0
-360 359 0
-360 374 0
-360 375 0
-373 -375 374 376 0
373 -376 0
-374 -376 0
-376 375 0
-387 388 -403 -404 0
-388 387 0
-388 403 0
-388 404 0
-402 -404 403 405 0
402 -405 0
-403 -405 0
-405 404 0
-432 -433 -415 416 0
-416 415 0
432 -416 0
433 -416 0
-431 -433 432 434 0
431 -434 0
-432 -434 0
-434 433 0
-461 -462 -443 444 0
-444 443 0
461 -444 0
462 -444 0
-460 -462 461 463 0
460 -463 0
-461 -463 0
-463 462 0
-490 -491 -471 472 0
-472 471 0
490 -472 0
491 -472 0
-491 490 492 -489 0
489 -492 0
-490 -492 0
-492 491 0
-499 -519 -520 500 0
-500 499 0
-500 519 0
-500 520 0
521 -518 -520 519 0
518 -521 0
-519 -521 0
-521 520 0
-527 -548 528 -549 0
-528 527 0
-528 548 0
-528 549 0
-547 -549 548 550 0
547 -550 0
-548 -550 0
-550 549 0
-555 556 -577 -578 0
-556 555 0
-556 577 0
-556 578 0
-576 -578 577 579 0
576 -579 0
-577 -579 0
-579 578 0
584 -606 -607 -583 0
-584 583 0
606 -584 0
607 -584 0
-605 -607 606 608 0
605 -608 0
-606 -608 0
-608 607 0
-635 -636 -611 612 0
-612 611 0
635 -612 0
636 -612 0
-634 -636 635 637 0
634 -637 0
-635 -637 0
-637 636 0
-639 640 -664 -665 0
-640 639 0
-640 664 0
665 -640 0
666 -663 -665 664 0
-666 663 0
-666 -664 0
-666 665 0
